c This file has been produced with Trace-DFA: cnf.DimacsSaver class
c This is the representation in a Dimacs file of a CNF formula.
c   variables:      22
c   clauses:        48
c   size of the biggest clause:    3
p cnf 22 48
1    2    0
3    -4    -5    0
6    7    0
3    -8    -9    0
10    -1    -11    0
12    -8    -2    0
3    -1    -13    0
-8    -14    0
15    3    0
16    12    0
13    5    0
-17    -18    0
14    -2    0
3    -11    -2    0
19    -20    -18    0
19    -13    -21    0
10    -18    -9    0
-6    -7    0
-10    -19    0
19    -1    -22    0
17    -11    0
7    -1    -18    0
21    0
11    22    0
-17    -9    0
17    0
17    -1    0
-20    -14    0
20    9    0
16    -18    -2    0
-16    -12    0
-14    0
14    -4    0
4    21    0
8    18    0
10    -21    -5    0
17    -21    0
15    -4    -13    0
10    -1    -5    0
15    -13    -2    0
19    -5    -2    0
6    -1    -8    0
-15    -3    0
15    -20    -8    0
10    19    0
20    0
15    -22    -2    0
14    -22    0
